[runlim] version:		2.0.0rc12
[runlim] host:			ap-Precision-7550
[runlim] time limit:		311040000 seconds
[runlim] real time limit:	600 seconds
[runlim] space limit:		14000 MB
[runlim] argv[0]:		python3
[runlim] argv[1]:		-u
[runlim] argv[2]:		mip_no.py
[runlim] argv[3]:		scen01
[runlim] start:			Wed Mar 25 01:42:27 2026
[runlim] child:			67625
--- Building MIP model for 916 variables ---
--- Solving with CPLEX MIP ---
Version identifier: 22.1.1.0 | 2022-11-28 | 9160aff4d
CPXPARAM_Read_DataCheck                          1
CPXPARAM_MIP_Tolerances_MIPGap                   0
Legacy callback                                  i
Tried aggregator 2 times.
MIP Presolve eliminated 648705 rows and 0 columns.
MIP Presolve modified 99673 coefficients.
Aggregator did 1 substitutions.
Reduced MIP has 119622 rows, 36247 columns, and 912315 nonzeros.
Reduced MIP has 36247 binaries, 0 generals, 0 SOSs, and 0 indicators.
Presolve time = 3.61 sec. (3199.10 ticks)
Probing changed sense of 18100 constraints.
Probing time = 0.20 sec. (44.44 ticks)
Tried aggregator 1 time.
[runlim] sample:		14.50 time, 10.01 real, 627 MB, 2.04 load
MIP Presolve eliminated 48878 rows and 18263 columns.
MIP Presolve modified 50626 coefficients.
Reduced MIP has 70744 rows, 17984 columns, and 749156 nonzeros.
Reduced MIP has 17984 binaries, 0 generals, 0 SOSs, and 0 indicators.
Presolve time = 3.45 sec. (2878.52 ticks)
Probing time = 0.03 sec. (6.56 ticks)
Tried aggregator 1 time.
Detecting symmetries...
Reduced MIP has 70744 rows, 17984 columns, and 749156 nonzeros.
Reduced MIP has 17984 binaries, 0 generals, 0 SOSs, and 0 indicators.
Presolve time = 1.16 sec. (981.13 ticks)
Probing time = 0.03 sec. (6.54 ticks)
Clique table members: 70743.
MIP emphasis: balance optimality and feasibility.
MIP search method: dynamic search.
Parallel mode: deterministic, using up to 12 threads.
[runlim] sample:		52.97 time, 20.02 real, 1173 MB, 2.20 load
[runlim] sample:		103.41 time, 30.01 real, 1032 MB, 2.78 load
[runlim] sample:		187.29 time, 40.02 real, 1739 MB, 3.53 load
[runlim] sample:		286.38 time, 50.02 real, 1739 MB, 4.53 load
[runlim] sample:		385.25 time, 60.02 real, 1739 MB, 5.37 load
[runlim] sample:		484.07 time, 70.02 real, 1739 MB, 6.08 load
[runlim] sample:		527.40 time, 80.01 real, 1053 MB, 6.12 load
[runlim] sample:		555.84 time, 90.01 real, 1053 MB, 5.64 load
[runlim] sample:		575.84 time, 100.01 real, 1053 MB, 5.16 load
[runlim] sample:		595.83 time, 110.01 real, 1053 MB, 4.68 load
Root relaxation solution time = 105.20 sec. (32661.23 ticks)

        Nodes                                         Cuts/
   Node  Left     Objective  IInf  Best Integer    Best Bound    ItCnt     Gap

*     0+    0                           42.0000        0.0000           100.00%
*     0+    0                           26.0000        0.0000           100.00%
*     0+    0                           24.0000        0.0000           100.00%
      0     0       14.0000   923       24.0000       14.0000    46010   41.67%

Num labels used: 24
Current incumbent solution: {16, 30, 44, 100, 142, 240, 254, 268, 282, 338, 380, 414, 442, 456, 478, 498, 540, 554, 652, 680, 694, 736, 778, 792}}
Time taken: 118.94s

Num labels used: 24
Current incumbent solution: {16, 30, 44, 100, 142, 240, 254, 268, 282, 338, 380, 414, 442, 456, 478, 498, 540, 554, 652, 680, 694, 736, 778, 792}}
Time taken: 118.95s
[runlim] sample:		614.64 time, 120.01 real, 1077 MB, 4.26 load
[runlim] sample:		634.64 time, 130.01 real, 1080 MB, 3.92 load
[runlim] sample:		654.63 time, 140.01 real, 1084 MB, 3.62 load
[runlim] sample:		674.63 time, 150.01 real, 1084 MB, 3.45 load
[runlim] sample:		694.62 time, 160.01 real, 1089 MB, 3.23 load
[runlim] sample:		714.62 time, 170.01 real, 1090 MB, 3.12 load
[runlim] sample:		734.62 time, 180.01 real, 1090 MB, 2.95 load
[runlim] sample:		754.61 time, 190.01 real, 1090 MB, 2.80 load
[runlim] sample:		774.61 time, 200.01 real, 1101 MB, 2.68 load
[runlim] sample:		794.60 time, 210.01 real, 1101 MB, 2.57 load
[runlim] sample:		814.60 time, 220.01 real, 1113 MB, 2.48 load
[runlim] sample:		834.59 time, 230.01 real, 1113 MB, 2.41 load
[runlim] sample:		854.59 time, 240.01 real, 1114 MB, 2.35 load
[runlim] sample:		874.58 time, 250.01 real, 1114 MB, 2.29 load
[runlim] sample:		894.58 time, 260.01 real, 1114 MB, 2.25 load
[runlim] sample:		914.57 time, 270.01 real, 1114 MB, 2.29 load
[runlim] sample:		934.58 time, 280.01 real, 1114 MB, 2.24 load
[runlim] sample:		954.57 time, 290.01 real, 1115 MB, 2.29 load
[runlim] sample:		974.57 time, 300.01 real, 1115 MB, 2.48 load
[runlim] sample:		994.57 time, 310.01 real, 1115 MB, 2.40 load
[runlim] sample:		1014.56 time, 320.01 real, 1115 MB, 2.34 load
[runlim] sample:		1034.56 time, 330.01 real, 1115 MB, 2.29 load
[runlim] sample:		1054.56 time, 340.01 real, 1115 MB, 2.24 load
[runlim] sample:		1074.56 time, 350.01 real, 1115 MB, 2.21 load
[runlim] sample:		1094.55 time, 360.01 real, 1115 MB, 2.17 load
[runlim] sample:		1114.55 time, 370.01 real, 1115 MB, 2.15 load
[runlim] sample:		1134.54 time, 380.01 real, 1115 MB, 2.12 load
[runlim] sample:		1154.54 time, 390.01 real, 1115 MB, 2.10 load
[runlim] sample:		1174.53 time, 400.01 real, 1115 MB, 2.09 load
[runlim] sample:		1194.53 time, 410.01 real, 1115 MB, 2.07 load
[runlim] sample:		1214.52 time, 420.01 real, 1115 MB, 2.06 load
[runlim] sample:		1234.52 time, 430.01 real, 1115 MB, 2.13 load
[runlim] sample:		1254.51 time, 440.01 real, 1115 MB, 2.11 load
[runlim] sample:		1274.51 time, 450.01 real, 1115 MB, 2.09 load
[runlim] sample:		1294.50 time, 460.01 real, 1115 MB, 2.08 load
[runlim] sample:		1314.50 time, 470.01 real, 1115 MB, 2.07 load
[runlim] sample:		1334.49 time, 480.01 real, 1115 MB, 2.06 load
[runlim] sample:		1354.49 time, 490.01 real, 1115 MB, 2.05 load
[runlim] sample:		1374.48 time, 500.01 real, 1115 MB, 2.04 load
[runlim] sample:		1394.48 time, 510.01 real, 1115 MB, 2.11 load
[runlim] sample:		1414.48 time, 520.01 real, 1115 MB, 2.09 load
[runlim] sample:		1434.47 time, 530.01 real, 1115 MB, 2.08 load
[runlim] sample:		1454.46 time, 540.01 real, 1115 MB, 2.06 load
[runlim] sample:		1474.46 time, 550.01 real, 1115 MB, 2.05 load
[runlim] sample:		1494.46 time, 560.01 real, 1115 MB, 2.04 load
[runlim] sample:		1514.45 time, 570.01 real, 1115 MB, 2.04 load
[runlim] sample:		1534.44 time, 580.01 real, 1115 MB, 2.11 load
[runlim] sample:		1554.44 time, 590.01 real, 1115 MB, 2.09 load
[runlim] sample:		1574.44 time, 600.01 real, 1115 MB, 2.08 load
[runlim] end:			Wed Mar 25 01:52:28 2026
[runlim] status:		out of time
[runlim] result:		2
[runlim] children:		1
[runlim] processes:		2
[runlim] real:			601.06 seconds
[runlim] time:			1574.44 seconds
[runlim] space:			1739 MB
[runlim] load:			6.40 maximum
[runlim] samples:		6000
